MARKOV
231
 2 2 2 2 2 2 2 2 2 2 2 2 2 2 2 2 2 2 2 2 2 2 2 2 2 2 2 2 2 2 2 2 2 2 2 2 2 2 2 2 2 2 2 2 2 2 2 2 2 2 2 2 2 2 2 2 2 2 2 2 2 2 2 2 2 2 2 2 2 2 2 2 2 2 2 2 2 2 2 2 2 2 2 2 2 2 2 2 2 2 2 2 2 2 2 2 2 2 2 2 2 2 2 2 2 2 2 2 2 2 2 2 2 2 2 2 2 2 2 2 2 2 2 2 2 2 2 2 2 2 2 2 2 2 2 2 2 2 2 2 2 2 2 2 2 2 2 2 2 2 2 2 2 2 2 2 2 2 2 2 2 2 2 2 2 2 2 2 2 2 2 2 2 2 2 2 2 2 2 2 2 2 2 2 2 2 2 2 2 2 2 2 2 2 2 2 2 2 2 2 2 2 2 2 2 2 2 2 2 2 2 2 2 2 2 2 2 2 2 2 2 2 2 2 2 2 2 2 2 2 2
853
1	0 
1	1 
1	2 
1	3 
1	4 
1	5 
1	6 
1	7 
1	8 
1	9 
1	10 
1	11 
1	12 
1	13 
1	14 
1	15 
1	16 
1	17 
1	18 
1	19 
1	20 
1	21 
1	22 
1	23 
1	24 
1	25 
1	26 
1	27 
1	28 
1	29 
1	30 
1	31 
1	32 
1	33 
1	34 
1	35 
1	36 
1	37 
1	38 
1	39 
1	40 
1	41 
1	42 
1	43 
1	44 
1	45 
1	46 
1	47 
1	48 
1	49 
1	50 
1	51 
1	52 
1	53 
1	54 
1	55 
1	56 
1	57 
1	58 
1	59 
1	60 
1	61 
1	62 
1	63 
1	64 
1	65 
1	66 
1	67 
1	68 
1	69 
1	70 
1	71 
1	72 
1	73 
1	74 
1	75 
1	76 
1	77 
1	78 
1	79 
1	80 
1	81 
1	82 
1	83 
1	84 
1	85 
1	86 
1	87 
1	88 
1	89 
1	90 
1	91 
1	92 
1	93 
1	94 
1	95 
1	96 
1	97 
1	98 
1	99 
1	100 
1	101 
1	102 
1	103 
1	104 
1	105 
1	106 
1	107 
1	108 
1	109 
1	110 
1	111 
1	112 
1	113 
1	114 
1	115 
1	116 
1	117 
1	118 
1	119 
1	120 
1	121 
1	122 
1	123 
1	124 
1	125 
1	126 
1	127 
1	128 
1	129 
1	130 
1	131 
1	132 
1	133 
1	134 
1	135 
1	136 
1	137 
1	138 
1	139 
1	140 
1	141 
1	142 
1	143 
1	144 
1	145 
1	146 
1	147 
1	148 
1	149 
1	150 
1	151 
1	152 
1	153 
1	154 
1	155 
1	156 
1	157 
1	158 
1	159 
1	160 
1	161 
1	162 
1	163 
1	164 
1	165 
1	166 
1	167 
1	168 
1	169 
1	170 
1	171 
1	172 
1	173 
1	174 
1	175 
1	176 
1	177 
1	178 
1	179 
1	180 
1	181 
1	182 
1	183 
1	184 
1	185 
1	186 
1	187 
1	188 
1	189 
1	190 
1	191 
1	192 
1	193 
1	194 
1	195 
1	196 
1	197 
1	198 
1	199 
1	200 
1	201 
1	202 
1	203 
1	204 
1	205 
1	206 
1	207 
1	208 
1	209 
1	210 
1	211 
1	212 
1	213 
1	214 
1	215 
1	216 
1	217 
1	218 
1	219 
1	220 
1	221 
1	222 
1	223 
1	224 
1	225 
1	226 
1	227 
1	228 
1	229 
1	230 
2	1 2 
2	1 3 
2	1 5 
2	2 5 
2	2 125 
2	2 126 
2	3 5 
2	3 213 
2	4 5 
2	4 43 
2	4 92 
2	4 125 
2	4 126 
2	4 213 
2	4 214 
2	5 125 
2	5 213 
2	6 7 
2	6 8 
2	6 193 
2	6 195 
2	7 56 
2	7 170 
2	7 193 
2	8 187 
2	8 192 
2	8 195 
2	9 10 
2	9 80 
2	9 82 
2	9 85 
2	9 156 
2	9 159 
2	10 11 
2	10 85 
2	10 150 
2	10 153 
2	10 156 
2	10 160 
2	11 149 
2	11 150 
2	11 153 
2	12 13 
2	12 15 
2	12 48 
2	12 122 
2	13 14 
2	13 15 
2	13 122 
2	13 124 
2	14 15 
2	14 96 
2	14 101 
2	14 124 
2	14 222 
2	14 226 
2	15 47 
2	15 222 
2	16 18 
2	16 19 
2	16 33 
2	16 53 
2	16 120 
2	17 20 
2	17 35 
2	17 37 
2	17 117 
2	17 183 
2	18 20 
2	18 32 
2	18 33 
2	18 120 
2	19 53 
2	19 120 
2	19 138 
2	19 140 
2	20 32 
2	20 37 
2	20 117 
2	20 120 
2	21 22 
2	21 23 
2	21 24 
2	21 162 
2	21 165 
2	21 202 
2	21 203 
2	22 23 
2	22 24 
2	22 64 
2	23 60 
2	23 64 
2	23 110 
2	23 112 
2	23 165 
2	23 196 
2	24 203 
2	25 26 
2	25 121 
2	25 123 
2	25 158 
2	25 190 
2	26 123 
2	26 190 
2	27 29 
2	27 30 
2	27 67 
2	27 71 
2	27 185 
2	27 199 
2	27 208 
2	28 29 
2	28 30 
2	28 31 
2	29 30 
2	29 67 
2	29 68 
2	30 31 
2	30 186 
2	30 207 
2	30 208 
2	31 186 
2	31 207 
2	32 33 
2	32 36 
2	32 37 
2	33 36 
2	33 53 
2	33 55 
2	34 35 
2	34 130 
2	34 132 
2	34 183 
2	34 184 
2	35 37 
2	35 131 
2	35 132 
2	35 183 
2	36 37 
2	36 55 
2	36 127 
2	36 131 
2	36 230 
2	37 131 
2	38 39 
2	38 40 
2	38 168 
2	38 171 
2	39 40 
2	39 77 
2	39 78 
2	40 75 
2	40 77 
2	40 168 
2	40 217 
2	41 43 
2	41 44 
2	41 93 
2	41 103 
2	41 104 
2	41 143 
2	41 145 
2	41 157 
2	42 43 
2	42 44 
2	42 126 
2	43 44 
2	43 93 
2	43 126 
2	43 214 
2	44 103 
2	45 46 
2	45 48 
2	46 47 
2	46 48 
2	46 221 
2	46 224 
2	47 48 
2	47 221 
2	47 222 
2	49 51 
2	49 52 
2	49 148 
2	49 200 
2	50 51 
2	50 139 
2	50 178 
2	50 181 
2	50 198 
2	51 148 
2	51 178 
2	51 198 
2	51 200 
2	52 200 
2	53 54 
2	53 55 
2	53 135 
2	53 138 
2	54 55 
2	54 74 
2	54 135 
2	54 144 
2	54 229 
2	55 228 
2	55 229 
2	55 230 
2	56 59 
2	56 88 
2	56 106 
2	56 170 
2	56 193 
2	57 58 
2	57 59 
2	57 105 
2	57 107 
2	57 169 
2	57 172 
2	58 105 
2	58 167 
2	58 169 
2	58 218 
2	58 220 
2	59 106 
2	59 107 
2	59 170 
2	59 172 
2	60 61 
2	60 63 
2	60 64 
2	60 196 
2	61 62 
2	61 63 
2	61 196 
2	61 223 
2	62 196 
2	62 197 
2	62 226 
2	63 64 
2	63 225 
2	65 66 
2	65 156 
2	65 159 
2	65 189 
2	66 102 
2	66 155 
2	66 159 
2	67 68 
2	67 69 
2	67 70 
2	67 71 
2	68 70 
2	69 70 
2	69 71 
2	69 200 
2	70 200 
2	71 199 
2	71 200 
2	72 73 
2	72 134 
2	72 142 
2	72 174 
2	72 180 
2	72 181 
2	73 74 
2	73 134 
2	73 135 
2	73 142 
2	74 135 
2	74 142 
2	74 144 
2	75 76 
2	75 77 
2	75 201 
2	75 202 
2	75 216 
2	75 217 
2	76 77 
2	76 201 
2	77 78 
2	79 81 
2	79 83 
2	79 141 
2	79 143 
2	79 204 
2	80 81 
2	80 82 
2	80 84 
2	80 85 
2	80 205 
2	81 83 
2	81 84 
2	81 204 
2	81 205 
2	82 84 
2	82 155 
2	82 159 
2	83 84 
2	83 143 
2	83 145 
2	83 206 
2	84 155 
2	84 206 
2	85 153 
2	85 205 
2	86 88 
2	86 89 
2	86 115 
2	86 116 
2	86 192 
2	86 195 
2	87 89 
2	87 113 
2	87 114 
2	87 209 
2	87 210 
2	87 211 
2	88 106 
2	88 115 
2	88 117 
2	88 193 
2	88 195 
2	89 114 
2	89 116 
2	89 192 
2	89 211 
2	90 91 
2	90 92 
2	90 95 
2	90 176 
2	90 215 
2	91 92 
2	91 93 
2	91 141 
2	91 143 
2	91 175 
2	91 215 
2	92 93 
2	92 95 
2	92 214 
2	93 143 
2	93 214 
2	94 95 
2	94 173 
2	94 213 
2	95 173 
2	95 176 
2	95 213 
2	96 99 
2	96 100 
2	96 101 
2	96 197 
2	96 226 
2	97 99 
2	97 101 
2	97 121 
2	97 124 
2	97 151 
2	98 99 
2	98 100 
2	98 108 
2	98 128 
2	98 154 
2	99 100 
2	99 101 
2	99 151 
2	99 154 
2	100 108 
2	100 112 
2	100 197 
2	101 124 
2	102 104 
2	102 155 
2	103 104 
2	104 155 
2	104 157 
2	105 107 
2	105 119 
2	105 218 
2	106 107 
2	106 117 
2	106 118 
2	107 118 
2	107 119 
2	108 109 
2	108 111 
2	108 112 
2	108 128 
2	108 133 
2	109 110 
2	109 111 
2	109 112 
2	109 161 
2	109 163 
2	110 112 
2	110 165 
2	111 130 
2	111 133 
2	111 161 
2	111 182 
2	112 196 
2	112 197 
2	113 114 
2	113 136 
2	113 140 
2	113 210 
2	114 116 
2	114 120 
2	114 140 
2	115 116 
2	115 117 
2	115 120 
2	116 120 
2	117 118 
2	117 120 
2	117 183 
2	118 119 
2	118 183 
2	118 184 
2	119 166 
2	119 182 
2	119 184 
2	119 218 
2	120 140 
2	121 123 
2	121 124 
2	121 150 
2	121 151 
2	121 158 
2	122 123 
2	122 124 
2	123 124 
2	125 126 
2	127 129 
2	127 131 
2	127 153 
2	127 227 
2	127 230 
2	128 129 
2	128 133 
2	128 154 
2	129 132 
2	129 133 
2	129 152 
2	129 153 
2	129 154 
2	130 132 
2	130 133 
2	130 182 
2	130 184 
2	131 132 
2	132 133 
2	134 135 
2	134 138 
2	134 139 
2	134 181 
2	135 138 
2	136 137 
2	136 138 
2	136 139 
2	136 140 
2	136 208 
2	136 210 
2	137 139 
2	137 198 
2	137 199 
2	137 208 
2	138 139 
2	138 140 
2	139 181 
2	139 198 
2	141 142 
2	141 143 
2	141 144 
2	141 175 
2	141 204 
2	142 144 
2	142 174 
2	142 175 
2	143 145 
2	144 204 
2	144 229 
2	145 157 
2	145 206 
2	146 147 
2	146 173 
2	146 179 
2	147 148 
2	147 178 
2	147 179 
2	148 178 
2	149 150 
2	149 151 
2	149 152 
2	149 153 
2	149 154 
2	150 151 
2	150 158 
2	150 160 
2	151 154 
2	152 153 
2	152 154 
2	153 205 
2	153 227 
2	155 157 
2	155 159 
2	155 206 
2	156 159 
2	156 160 
2	156 189 
2	156 191 
2	157 206 
2	158 160 
2	158 190 
2	160 190 
2	160 191 
2	161 163 
2	161 164 
2	161 166 
2	161 182 
2	162 163 
2	162 164 
2	162 165 
2	162 202 
2	162 216 
2	162 219 
2	163 164 
2	163 165 
2	164 166 
2	164 218 
2	164 219 
2	166 182 
2	166 218 
2	167 168 
2	167 169 
2	167 171 
2	167 220 
2	168 171 
2	168 217 
2	168 220 
2	169 171 
2	169 172 
2	170 172 
2	173 176 
2	173 179 
2	174 175 
2	174 176 
2	174 177 
2	174 180 
2	175 176 
2	175 215 
2	176 177 
2	176 179 
2	176 215 
2	177 178 
2	177 179 
2	177 180 
2	177 181 
2	178 179 
2	178 181 
2	180 181 
2	182 184 
2	183 184 
2	185 199 
2	185 208 
2	186 188 
2	186 207 
2	186 209 
2	187 188 
2	187 192 
2	187 194 
2	188 194 
2	188 209 
2	188 211 
2	189 191 
2	190 191 
2	192 194 
2	192 195 
2	192 211 
2	193 195 
2	194 211 
2	196 197 
2	197 226 
2	198 199 
2	198 200 
2	199 200 
2	199 208 
2	201 202 
2	201 203 
2	202 203 
2	202 216 
2	204 205 
2	204 229 
2	205 227 
2	205 228 
2	205 229 
2	207 208 
2	207 209 
2	207 210 
2	208 210 
2	209 210 
2	209 211 
2	216 217 
2	216 219 
2	217 219 
2	217 220 
2	218 219 
2	218 220 
2	219 220 
2	221 222 
2	221 223 
2	221 224 
2	221 225 
2	222 223 
2	222 226 
2	223 225 
2	223 226 
2	224 225 
2	227 228 
2	227 230 
2	228 229 
2	228 230 
0	

2
 0.252912 1
2
 0.349078 1
2
 0.547763 1
2
 0.743567 1
2
 0.813246 1
2
 0.547025 1
2
 1 0.556147
2
 1 0.852442
2
 1 0.639645
2
 1 0.876501
2
 1 0.846133
2
 0.703699 1
2
 0.35815 1
2
 0.467655 1
2
 0.448843 1
2
 1 0.8229
2
 1 0.869199
2
 0.252767 1
2
 1 0.81383
2
 0.293883 1
2
 1 0.908545
2
 1 0.646716
2
 1 0.0730102
2
 1 0.681132
2
 1 0.176227
2
 1 0.440117
2
 1 0.181631
2
 0.903833 1
2
 1 0.595913
2
 0.587343 1
2
 0.547229 1
2
 0.942598 1
2
 0.249164 1
2
 0.17516 1
2
 0.076024 1
2
 0.0774807 1
2
 0.136408 1
2
 0.115681 1
2
 1 0.828913
2
 1 0.140884
2
 1 0.839307
2
 0.124148 1
2
 1 0.255975
2
 0.615419 1
2
 0.379308 1
2
 0.435232 1
2
 1 0.311417
2
 0.459402 1
2
 0.17881 1
2
 0.33362 1
2
 1 0.846397
2
 1 0.909651
2
 1 0.920499
2
 0.111486 1
2
 0.0405605 1
2
 0.253951 1
2
 1 0.379548
2
 1 0.627283
2
 1 0.82456
2
 1 0.532915
2
 1 0.158229
2
 1 0.143049
2
 1 0.364036
2
 1 0.0680411
2
 1 0.0984997
2
 0.644333 1
2
 1 0.138855
2
 1 0.940002
2
 1 0.429279
2
 1 0.185881
2
 1 0.322783
2
 1 0.794989
2
 0.0228331 1
2
 0.0175132 1
2
 0.0815183 1
2
 1 0.179388
2
 1 0.390005
2
 1 0.17185
2
 1 0.0524837
2
 0.484764 1
2
 0.22477 1
2
 0.0923085 1
2
 0.741179 1
2
 0.737578 1
2
 0.247859 1
2
 0.507827 1
2
 1 0.405919
2
 1 0.243827
2
 1 0.445248
2
 1 0.432648
2
 1 0.147925
2
 1 0.522504
2
 1 0.0691917
2
 1 0.232648
2
 0.353445 1
2
 1 0.118656
2
 0.278748 1
2
 0.201961 1
2
 0.479306 1
2
 0.492652 1
2
 0.140603 1
2
 0.192016 1
2
 1 0.514759
2
 0.36218 1
2
 0.669693 1
2
 0.700444 1
2
 1 0.664305
2
 1 0.556422
2
 0.0503078 1
2
 0.0534211 1
2
 0.0733702 1
2
 0.140991 1
2
 0.032602 1
2
 1 0.67431
2
 0.874759 1
2
 1 0.393611
2
 1 0.52539
2
 0.861043 1
2
 0.702537 1
2
 0.386547 1
2
 0.421758 1
2
 0.632592 1
2
 0.412224 1
2
 0.864602 1
2
 0.17302 1
2
 1 0.504407
2
 1 0.438124
2
 0.431653 1
2
 0.510245 1
2
 1 0.910344
2
 0.0823513 1
2
 0.153868 1
2
 0.0257848 1
2
 0.0267419 1
2
 0.322369 1
2
 0.143298 1
2
 0.321444 1
2
 0.407375 1
2
 0.160217 1
2
 0.452495 1
2
 0.474706 1
2
 0.228356 1
2
 0.207954 1
2
 0.17782 1
2
 0.259898 1
2
 0.552169 1
2
 0.542091 1
2
 0.603661 1
2
 0.177666 1
2
 0.387718 1
2
 0.649061 1
2
 0.629689 1
2
 1 0.80486
2
 0.18707 1
2
 0.764378 1
2
 0.702706 1
2
 0.633789 1
2
 0.448613 1
2
 0.465373 1
2
 0.705739 1
2
 0.706043 1
2
 0.206943 1
2
 0.52925 1
2
 0.367938 1
2
 0.570162 1
2
 0.313204 1
2
 0.697758 1
2
 0.183069 1
2
 0.751 1
2
 1 0.596091
2
 1 0.595775
2
 1 0.754444
2
 1 0.54118
2
 1 0.811253
2
 0.668145 1
2
 0.143494 1
2
 1 0.376799
2
 1 0.227503
2
 1 0.189181
2
 1 0.137928
2
 0.503086 1
2
 0.679913 1
2
 0.599199 1
2
 0.335933 1
2
 0.388838 1
2
 0.451619 1
2
 0.736947 1
2
 1 0.412475
2
 1 0.543759
2
 0.203594 1
2
 1 0.282942
2
 0.143903 1
2
 1 0.45207
2
 0.866067 1
2
 1 0.875706
2
 0.942557 1
2
 0.440823 1
2
 0.34224 1
2
 0.756179 1
2
 0.747388 1
2
 1 0.374209
2
 1 0.295013
2
 0.947771 1
2
 1 0.0747903
2
 0.103812 1
2
 0.17655 1
2
 0.562923 1
2
 1 0.515429
2
 1 0.336808
2
 1 0.805818
2
 1 0.410324
2
 1 0.862827
2
 0.252912 1
2
 1 0.0839033
2
 1 0.560519
2
 1 0.566537
2
 0.975842 1
2
 1 0.700802
2
 1 0.365099
2
 1 0.978645
2
 0.717452 1
2
 0.280818 1
2
 0.713719 1
2
 0.157799 1
2
 0.376017 1
2
 0.195581 1
2
 0.301 1
2
 0.0850478 1
2
 0.360446 1
2
 0.460657 1
2
 0.148255 1
4
 1 0.360434 0.360434 0.941339
4
 1 0.360655 0.360655 0.945365
4
 1 0.358304 0.358304 0.946214
4
 1 0.355811 0.355811 0.946905
4
 1 0.354848 0.354848 0.945523
4
 1 0.354322 0.354322 0.943984
4
 1 0.35603 0.35603 0.950955
4
 1 0.355563 0.355563 0.953307
4
 1 0.350576 0.350576 0.953628
4
 1 0.344328 0.344328 0.955986
4
 1 0.345069 0.345069 0.959212
4
 1 0.349627 0.349627 0.952236
4
 1 0.349109 0.349109 0.950687
4
 1 0.350117 0.350117 0.955987
4
 1 0.345534 0.345534 0.95706
4
 1 0.352751 0.352751 0.95042
4
 1 0.353245 0.353245 0.954164
4
 0.935768 0.257959 0.257959 1
4
 0.937503 0.261947 0.261947 1
4
 0.940932 0.262438 0.262438 1
4
 0.941618 0.264029 0.264029 1
4
 0.939507 0.258733 0.258733 1
4
 0.933984 0.253913 0.253913 1
4
 0.940087 0.260493 0.260493 1
4
 0.939347 0.266244 0.266244 1
4
 0.943576 0.268162 0.268162 1
4
 0.942517 0.266124 0.266124 1
4
 1 0.309039 0.309039 0.980114
4
 1 0.311824 0.311824 0.981602
4
 1 0.313846 0.313846 0.977367
4
 1 0.308557 0.308557 0.983698
4
 1 0.313407 0.313407 0.973532
4
 1 0.315593 0.315593 0.972604
4
 1 0.305253 0.305253 0.981325
4
 1 0.306305 0.306305 0.984914
4
 1 0.305404 0.305404 0.979013
4
 1 0.303861 0.303861 0.987128
4
 1 0.31112 0.31112 0.974735
4
 1 0.309198 0.309198 0.975118
4
 1 0.301098 0.301098 0.984525
4
 1 0.30388 0.30388 0.979013
4
 1 0.302344 0.302344 0.987128
4
 1 0.294644 0.294644 0.970417
4
 1 0.292503 0.292503 0.971834
4
 1 0.291865 0.291865 0.968348
4
 1 0.297536 0.297536 0.966013
4
 1 0.291254 0.291254 0.97956
4
 1 0.292286 0.292286 0.975279
4
 1 0.297316 0.297316 0.969437
4
 1 0.29567 0.29567 0.974185
4
 1 0.289138 0.289138 0.98099
4
 1 0.28654 0.28654 0.990567
4
 1 0.289244 0.289244 0.986349
4
 1 0.292485 0.292485 0.97989
4
 1 0.286093 0.286093 0.985573
4
 1 0.28485 0.28485 0.99001
4
 1 0.288252 0.288252 0.977141
4
 1 0.287108 0.287108 0.981265
4
 0.977553 0.292775 0.292775 1
4
 0.97887 0.297048 0.297048 1
4
 0.983554 0.297892 0.297892 1
4
 0.982946 0.299352 0.299352 1
4
 0.974702 0.291071 0.291071 1
4
 0.97454 0.284434 0.284434 1
4
 0.979093 0.284976 0.284976 1
4
 0.979698 0.286915 0.286915 1
4
 0.968757 0.278541 0.278541 1
4
 0.97301 0.280287 0.280287 1
4
 0.976018 0.288507 0.288507 1
4
 0.980247 0.292123 0.292123 1
4
 0.982892 0.295741 0.295741 1
4
 0.974046 0.28897 0.28897 1
4
 0.983608 0.301529 0.301529 1
4
 0.975359 0.293188 0.293188 1
4
 0.981676 0.302658 0.302658 1
4
 0.977222 0.298356 0.298356 1
4
 0.979367 0.289958 0.289958 1
4
 0.980302 0.288868 0.288868 1
4
 0.969355 0.280436 0.280436 1
4
 0.973172 0.286828 0.286828 1
4
 0.964583 0.253091 0.253091 1
4
 0.967132 0.256107 0.256107 1
4
 0.960638 0.250423 0.250423 1
4
 0.958374 0.25222 0.25222 1
4
 0.962527 0.254531 0.254531 1
4
 0.955419 0.248739 0.248739 1
4
 0.956815 0.248014 0.248014 1
4
 0.970614 0.256896 0.256896 1
4
 0.964096 0.251195 0.251195 1
4
 0.971869 0.255791 0.255791 1
4
 0.97778 0.261881 0.261881 1
4
 0.974437 0.258839 0.258839 1
4
 0.973506 0.261554 0.261554 1
4
 0.977724 0.264832 0.264832 1
4
 0.968545 0.258358 0.258358 1
4
 0.978713 0.263959 0.263959 1
4
 0.956332 0.246157 0.246157 1
4
 1 0.308726 0.308726 0.96201
4
 1 0.304786 0.304786 0.968133
4
 1 0.306001 0.306001 0.964064
4
 1 0.307298 0.307298 0.967264
4
 1 0.310411 0.310411 0.962172
4
 1 0.306914 0.306914 0.961685
4
 1 0.311337 0.311337 0.959798
4
 0.957556 0.296403 0.296403 1
4
 0.958525 0.294933 0.294933 1
4
 0.961435 0.300421 0.300421 1
4
 0.964896 0.30185 0.30185 1
4
 0.96468 0.299786 0.299786 1
4
 0.967881 0.303027 0.303027 1
4
 0.964139 0.298395 0.298395 1
4
 0.950378 0.29084 0.29084 1
4
 0.951339 0.289398 0.289398 1
4
 0.947129 0.285074 0.285074 1
4
 0.954014 0.292767 0.292767 1
4
 0.95691 0.298214 0.298214 1
4
 0.952514 0.295805 0.295805 1
4
 0.950753 0.286963 0.286963 1
4
 0.950166 0.285024 0.285024 1
4
 0.955999 0.29049 0.29049 1
4
 0.960572 0.294735 0.294735 1
4
 0.945961 0.280766 0.280766 1
4
 0.951768 0.28615 0.28615 1
4
 0.986264 0.297229 0.297229 1
4
 0.98693 0.295917 0.295917 1
4
 0.98455 0.292488 0.292488 1
4
 0.989593 0.299582 0.299582 1
4
 0.988315 0.302386 0.302386 1
4
 0.993044 0.304257 0.304257 1
4
 0.982563 0.284771 0.284771 1
4
 0.978929 0.278942 0.278942 1
4
 0.984828 0.284501 0.284501 1
4
 0.976458 0.280085 0.280085 1
4
 0.975418 0.277622 0.277622 1
4
 0.984883 0.289419 0.289419 1
4
 0.98854 0.291066 0.291066 1
4
 0.986544 0.287191 0.287191 1
4
 0.978159 0.282733 0.282733 1
4
 0.987873 0.294804 0.294804 1
4
 0.993713 0.302914 0.302914 1
4
 0.994328 0.298436 0.298436 1
4
 0.991541 0.296481 0.296481 1
4
 0.993825 0.300679 0.300679 1
4
 0.98915 0.293046 0.293046 1
4
 0.922004 0.230075 0.230075 1
4
 0.925635 0.232977 0.232977 1
4
 0.926519 0.234826 0.234826 1
4
 0.925011 0.235576 0.235576 1
4
 0.924493 0.230222 0.230222 1
4
 0.925584 0.229401 0.229401 1
4
 0.921332 0.226412 0.226412 1
4
 0.93336 0.235817 0.235817 1
4
 0.929229 0.232294 0.232294 1
4
 0.929019 0.234976 0.234976 1
4
 0.932731 0.236863 0.236863 1
4
 1 0.338434 0.338434 0.957596
4
 1 0.338929 0.338929 0.953465
4
 1 0.335588 0.335588 0.962448
4
 1 0.336857 0.336857 0.954268
4
 1 0.334568 0.334568 0.956037
4
 1 0.332817 0.332817 0.965533
4
 1 0.332541 0.332541 0.962772
4
 1 0.332978 0.332978 0.960396
4
 1 0.343953 0.343953 0.95154
4
 1 0.344457 0.344457 0.947435
4
 1 0.348729 0.348729 0.946266
4
 1 0.341711 0.341711 0.952395
4
 1 0.338343 0.338343 0.961368
4
 1 0.34595 0.34595 0.95122
4
 1 0.342407 0.342407 0.957597
4
 1 0.34012 0.34012 0.949084
4
 1 0.283056 0.283056 0.975331
4
 1 0.286546 0.286546 0.970796
4
 1 0.284121 0.284121 0.978184
4
 1 0.28538 0.28538 0.974237
4
 1 0.281148 0.281148 0.983194
4
 1 0.279745 0.279745 0.983194
4
 1 0.287623 0.287623 0.973636
4
 1 0.283358 0.283358 0.982588
4
 1 0.285218 0.285218 0.981706
4
 0.988532 0.323841 0.323841 1
4
 0.982224 0.320731 0.320731 1
4
 0.991868 0.328041 0.328041 1
4
 0.982004 0.318538 0.318538 1
4
 0.991813 0.323545 0.323545 1
4
 0.989478 0.317818 0.317818 1
4
 0.997958 0.328257 0.328257 1
4
 0.996447 0.325245 0.325245 1
4
 0.988533 0.319018 0.319018 1
4
 0.994601 0.328952 0.328952 1
4
 0.997397 0.329469 0.329469 1
4
 0.987978 0.320196 0.320196 1
4
 0.98471 0.319422 0.319422 1
4
 0.978426 0.316355 0.316355 1
4
 0.992374 0.307652 0.307652 1
4
 0.99243 0.305749 0.305749 1
4
 0.98998 0.307657 0.307657 1
4
 0.985764 0.305005 0.305005 1
4
 0.997122 0.309556 0.309556 1
4
 0.998522 0.314745 0.314745 1
4
 0.994661 0.311487 0.311487 1
4
 1 0.315326 0.315326 0.998224
4
 1 0.312621 0.312621 0.999177
4
 1 0.308741 0.308741 0.999288
4
 1 0.31067 0.31067 0.99912
4
 0.997291 0.305371 0.305371 1
4
 0.943154 0.259268 0.259268 1
4
 0.949317 0.265987 0.265987 1
4
 0.948199 0.263403 0.263403 1
4
 0.938558 0.256577 0.256577 1
4
 0.944691 0.263226 0.263226 1
4
 0.940301 0.25116 0.25116 1
4
 0.941198 0.254847 0.254847 1
4
 0.944587 0.254357 0.254357 1
4
 0.945435 0.256683 0.256683 1
4
 0.934825 0.247833 0.247833 1
4
 0.93556 0.249867 0.249867 1
4
 0.944693 0.252901 0.252901 1
4
 0.937297 0.24664 0.24664 1
4
 0.934931 0.246414 0.246414 1
4
 0.944057 0.251075 0.251075 1
4
 0.939615 0.247162 0.247162 1
4
 0.947241 0.261208 0.261208 1
4
 0.946444 0.258961 0.258961 1
4
 0.93761 0.254439 0.254439 1
4
 0.936558 0.252084 0.252084 1
4
 0.987602 0.267902 0.267902 1
4
 0.986549 0.265546 0.265546 1
4
 0.979044 0.260754 0.260754 1
4
 0.983341 0.265913 0.265913 1
4
 0.994334 0.274567 0.274567 1
4
 0.99177 0.269655 0.269655 1
4
 0.988545 0.270028 0.270028 1
4
 0.998083 0.275338 0.275338 1
4
 0.990044 0.272528 0.272528 1
4
 0.994445 0.277123 0.277123 1
4
 1 0.279938 0.279938 0.999449
4
 0.983176 0.262461 0.262461 1
4
 0.996292 0.270821 0.270821 1
4
 1 0.325862 0.325862 0.955338
4
 1 0.319868 0.319868 0.962174
4
 1 0.322099 0.322099 0.961257
4
 1 0.322924 0.322924 0.956089
4
 1 0.329064 0.329064 0.953838
4
 1 0.326062 0.326062 0.959424
4
 1 0.323672 0.323672 0.960394
4
 0.956373 0.299815 0.299815 1
4
 0.966414 0.306826 0.306826 1
4
 0.962352 0.304831 0.304831 1
4
 0.964246 0.303694 0.303694 1
4
 0.957931 0.302368 0.302368 1
4
 0.967988 0.309439 0.309439 1
4
 0.969893 0.308285 0.308285 1
4
 0.975135 0.312825 0.312825 1
4
 0.971037 0.310791 0.310791 1
4
 0.970711 0.306329 0.306329 1
4
 0.972948 0.309632 0.309632 1
4
 1 0.323048 0.323048 0.998338
4
 0.997903 0.321605 0.321605 1
4
 1 0.324989 0.324989 0.99364
4
 1 0.328263 0.328263 0.99091
4
 1 0.327597 0.327597 0.994143
4
 1 0.32644 0.32644 0.998507
4
 1 0.319622 0.319622 0.999571
4
 0.99712 0.319519 0.319519 1
4
 0.99656 0.31645 0.31645 1
4
 1 0.323134 0.323134 0.994421
4
 0.996113 0.31475 0.31475 1
4
 1 0.321543 0.321543 0.994868
4
 1 0.318164 0.318164 0.996768
4
 0.938405 0.236908 0.236908 1
4
 0.934462 0.234976 0.234976 1
4
 0.942048 0.239386 0.239386 1
4
 0.944166 0.241855 0.241855 1
4
 0.942894 0.242382 0.242382 1
4
 0.937983 0.239597 0.239597 1
4
 0.934252 0.233369 0.233369 1
4
 0.941837 0.237749 0.237749 1
4
 0.926052 0.22845 0.22845 1
4
 1 0.320768 0.320768 0.981163
4
 1 0.324314 0.324314 0.976546
4
 1 0.325464 0.325464 0.980778
4
 1 0.326874 0.326874 0.976163
4
 1 0.321286 0.321286 0.983646
4
 1 0.315041 0.315041 0.983368
4
 1 0.314363 0.314363 0.98006
4
 1 0.316555 0.316555 0.979126
4
 1 0.309066 0.309066 0.986409
4
 1 0.311429 0.311429 0.987185
4
 1 0.321279 0.321279 0.977808
4
 1 0.319295 0.319295 0.978192
4
 1 0.31828 0.31828 0.984916
4
 1 0.314124 0.314124 0.986244
4
 1 0.318608 0.318608 0.974901
4
 1 0.320513 0.320513 0.970096
4
 1 0.318163 0.318163 0.971076
4
 1 0.322824 0.322824 0.973589
4
 1 0.327395 0.327395 0.972825
4
 1 0.327124 0.327124 0.970043
4
 1 0.325236 0.325236 0.970369
4
 1 0.322748 0.322748 0.969171
4
 1 0.323227 0.323227 0.97075
4
 1 0.303387 0.303387 0.990738
4
 1 0.308166 0.308166 0.989293
4
 0.955949 0.27344 0.27344 1
4
 0.958421 0.278885 0.278885 1
4
 0.960091 0.276406 0.276406 1
4
 0.961548 0.279431 0.279431 1
4
 0.953054 0.274327 0.274327 1
4
 0.951985 0.272242 0.272242 1
4
 0.960953 0.284571 0.284571 1
4
 0.966309 0.2911 0.2911 1
4
 0.965387 0.288327 0.288327 1
4
 0.958473 0.286081 0.286081 1
4
 0.963491 0.290373 0.290373 1
4
 0.957612 0.283961 0.283961 1
4
 0.953431 0.267977 0.267977 1
4
 0.958691 0.273541 0.273541 1
4
 0.959068 0.272609 0.272609 1
4
 0.949903 0.267797 0.267797 1
4
 0.950597 0.26942 0.26942 1
4
 0.963925 0.285206 0.285206 1
4
 0.962628 0.282041 0.282041 1
4
 0.954125 0.27689 0.27689 1
4
 0.956162 0.280887 0.280887 1
4
 1 0.339047 0.339047 0.969718
4
 1 0.342396 0.342396 0.965752
4
 1 0.345111 0.345111 0.96559
4
 1 0.340611 0.340611 0.972664
4
 1 0.339273 0.339273 0.971408
4
 1 0.339331 0.339331 0.966945
4
 1 0.335755 0.335755 0.968575
4
 1 0.331545 0.331545 0.976274
4
 1 0.332982 0.332982 0.97168
4
 1 0.334382 0.334382 0.974686
4
 1 0.336236 0.336236 0.972608
4
 1 0.339072 0.339072 0.964613
4
 1 0.3454 0.3454 0.962828
4
 1 0.343145 0.343145 0.960829
4
 1 0.332727 0.332727 0.969336
4
 1 0.339528 0.339528 0.962449
4
 1 0.350302 0.350302 0.962289
4
 1 0.349121 0.349121 0.967599
4
 1 0.352631 0.352631 0.959214
4
 1 0.346964 0.346964 0.967979
4
 1 0.343599 0.343599 0.969719
4
 1 0.350452 0.350452 0.959591
4
 1 0.287096 0.287096 0.995306
4
 0.998305 0.282836 0.282836 1
4
 1 0.287661 0.287661 0.991624
4
 0.998586 0.28161 0.28161 1
4
 1 0.283292 0.283292 0.995306
4
 1 0.292347 0.292347 0.988068
4
 1 0.292923 0.292923 0.984413
4
 1 0.298627 0.298627 0.97665
4
 1 0.296205 0.296205 0.977967
4
 1 0.296164 0.296164 0.982701
4
 1 0.287625 0.287625 0.999395
4
 0.994221 0.282198 0.282198 1
4
 0.98982 0.279842 0.279842 1
4
 0.994388 0.284957 0.284957 1
4
 0.999706 0.289019 0.289019 1
4
 0.998865 0.285103 0.285103 1
4
 1 0.289804 0.289804 0.991068
4
 1 0.293011 0.293011 0.989345
4
 1 0.290723 0.290723 0.995643
4
 0.988099 0.277221 0.277221 1
4
 0.987378 0.274633 0.274633 1
4
 0.992771 0.278343 0.278343 1
4
 1 0.293629 0.293629 0.980936
4
 1 0.332069 0.332069 0.953303
4
 1 0.327665 0.327665 0.958778
4
 1 0.335743 0.335743 0.951645
4
 1 0.329039 0.329039 0.958886
4
 1 0.331876 0.331876 0.957756
4
 0.949852 0.258463 0.258463 1
4
 0.953647 0.259671 0.259671 1
4
 0.948361 0.254271 0.254271 1
4
 0.951506 0.26309 0.26309 1
4
 0.957939 0.26996 0.26996 1
4
 0.956488 0.267038 0.267038 1
4
 0.955683 0.26474 0.26474 1
4
 0.954504 0.262046 0.262046 1
4
 0.978987 0.270821 0.270821 1
4
 0.980361 0.273531 0.273531 1
4
 0.983008 0.272341 0.272341 1
4
 0.988265 0.279932 0.279932 1
4
 0.98483 0.277938 0.277938 1
4
 0.974052 0.264973 0.264973 1
4
 0.975639 0.269466 0.269466 1
4
 0.978273 0.268294 0.268294 1
4
 0.970285 0.265309 0.265309 1
4
 0.969142 0.26317 0.26317 1
4
 0.978053 0.266459 0.266459 1
4
 0.968871 0.259945 0.259945 1
4
 0.977008 0.273983 0.273983 1
4
 0.981462 0.276547 0.276547 1
4
 0.971647 0.267963 0.267963 1
4
 0.972138 0.269985 0.269985 1
4
 0.983285 0.268909 0.268909 1
4
 0.987656 0.273443 0.273443 1
4
 0.969298 0.291749 0.291749 1
4
 0.972677 0.298285 0.298285 1
4
 0.972569 0.296027 0.296027 1
4
 0.967394 0.293819 0.293819 1
4
 0.96707 0.285764 0.285764 1
4
 0.969789 0.288128 0.288128 1
4
 0.971641 0.293207 0.293207 1
4
 0.964306 0.279534 0.279534 1
4
 0.963224 0.275565 0.275565 1
4
 0.967017 0.281847 0.281847 1
4
 0.968483 0.284931 0.284931 1
4
 0.962144 0.271653 0.271653 1
4
 0.967397 0.280886 0.280886 1
4
 0.967833 0.276348 0.276348 1
4
 0.959501 0.265978 0.265978 1
4
 0.966367 0.273356 0.273356 1
4
 0.965337 0.270953 0.270953 1
4
 0.958533 0.262008 0.262008 1
4
 0.962794 0.265539 0.265539 1
4
 0.964146 0.268195 0.268195 1
4
 0.953005 0.257796 0.257796 1
4
 0.973061 0.292353 0.292353 1
4
 1 0.302998 0.302998 0.967807
4
 1 0.299347 0.299347 0.973201
4
 1 0.30291 0.30291 0.974296
4
 1 0.299305 0.299305 0.977913
4
 1 0.304282 0.304282 0.971019
4
 1 0.302213 0.302213 0.964388
4
 1 0.298572 0.298572 0.969764
4
 1 0.300541 0.300541 0.969111
4
 1 0.351274 0.351274 0.947489
4
 0.996957 0.295025 0.295025 1
4
 0.995614 0.296657 0.296657 1
4
 1 0.300025 0.300025 0.997268
4
 1 0.301608 0.301608 0.999062
4
 0.997908 0.300857 0.300857 1
4
 0.994163 0.288247 0.288247 1
4
 0.989375 0.283018 0.283018 1
4
 0.998135 0.289112 0.289112 1
4
 0.992155 0.289191 0.289191 1
4
 0.990708 0.286194 0.286194 1
4
 0.99948 0.294312 0.294312 1
4
 1 0.296853 0.296853 0.998724
4
 0.999481 0.292356 0.292356 1
4
 0.982895 0.281313 0.281313 1
4
 0.981462 0.278397 0.278397 1
4
 0.972138 0.271792 0.271792 1
4
 0.973503 0.274511 0.274511 1
4
 0.990818 0.29079 0.29079 1
4
 0.987376 0.283945 0.283945 1
4
 0.992818 0.314513 0.314513 1
4
 0.98859 0.311803 0.311803 1
4
 0.989978 0.315448 0.315448 1
4
 0.996951 0.322819 0.322819 1
4
 0.988036 0.308808 0.308808 1
4
 0.975795 0.304259 0.304259 1
4
 0.979473 0.304097 0.304097 1
4
 0.980849 0.307652 0.307652 1
4
 0.975029 0.299775 0.299775 1
4
 0.970658 0.300122 0.300122 1
4
 0.969841 0.29754 0.29754 1
4
 0.981509 0.30989 0.30989 1
4
 0.980573 0.311059 0.311059 1
4
 0.975082 0.306997 0.306997 1
4
 0.971312 0.302304 0.302304 1
4
 0.98521 0.309725 0.309725 1
4
 0.979364 0.301795 0.301795 1
4
 0.993542 0.320668 0.320668 1
4
 0.985651 0.314529 0.314529 1
4
 1 0.326106 0.326106 0.985693
4
 1 0.328556 0.328556 0.977041
4
 1 0.322679 0.322679 0.987576
4
 1 0.329937 0.329937 0.980064
4
 1 0.322939 0.322939 0.98453
4
 1 0.32166 0.32166 0.991632
4
 1 0.328351 0.328351 0.987023
4
 1 0.328896 0.328896 0.984089
4
 1 0.329706 0.329706 0.969662
4
 1 0.318537 0.318537 0.990463
4
 1 0.31555 0.31555 0.994475
4
 1 0.329865 0.329865 0.964503
4
 1 0.327532 0.327532 0.967214
4
 1 0.341691 0.341691 0.985696
4
 1 0.345245 0.345245 0.97666
4
 1 0.342084 0.342084 0.98216
4
 1 0.336298 0.336298 0.996716
4
 1 0.335882 0.335882 0.993921
4
 1 0.339102 0.339102 0.987857
4
 1 0.333489 0.333489 0.999237
4
 1 0.301247 0.301247 0.982206
4
 1 0.297662 0.297662 0.985852
4
 1 0.297313 0.297313 0.992128
4
 1 0.299725 0.299725 0.990347
4
 1 0.295337 0.295337 0.992128
4
 1 0.300412 0.300412 0.980332
4
 1 0.305407 0.305407 0.973421
4
 1 0.307808 0.307808 0.972821
4
 1 0.294518 0.294518 0.990235
4
 1 0.298544 0.298544 0.994751
4
 1 0.294174 0.294174 0.996539
4
 1 0.305707 0.305707 0.991517
4
 1 0.302553 0.302553 0.994751
4
 1 0.327475 0.327475 0.963257
4
 1 0.322296 0.322296 0.965368
4
 1 0.325159 0.325159 0.965965
4
 1 0.317718 0.317718 0.967266
4
 1 0.313569 0.313569 0.96857
4
 1 0.318532 0.318532 0.962066
4
 1 0.316337 0.316337 0.963201
4
 1 0.327962 0.327962 0.964827
4
 1 0.309201 0.309201 0.969549
4
 1 0.309897 0.309897 0.96504
4
 1 0.312333 0.312333 0.964445
4
 1 0.314383 0.314383 0.963579
4
 0.965177 0.261702 0.261702 1
4
 0.960959 0.259637 0.259637 1
4
 0.962525 0.262285 0.262285 1
4
 0.966804 0.26582 0.26582 1
4
 0.959827 0.255832 0.255832 1
4
 0.955632 0.253814 0.253814 1
4
 0.959774 0.254438 0.254438 1
4
 0.952686 0.248648 0.248648 1
4
 0.951403 0.24919 0.24919 1
4
 0.951242 0.250508 0.250508 1
4
 0.959827 0.257544 0.257544 1
4
 0.963986 0.258176 0.258176 1
4
 0.957189 0.258119 0.258119 1
4
 0.951669 0.253969 0.253969 1
4
 0.951242 0.252184 0.252184 1
4
 0.963011 0.264265 0.264265 1
4
 0.95322 0.25656 0.25656 1
4
 0.932049 0.240194 0.240194 1
4
 0.931839 0.243372 0.243372 1
4
 0.930532 0.240961 0.240961 1
4
 0.936508 0.24411 0.24411 1
4
 0.928393 0.237597 0.237597 1
4
 0.933621 0.238743 0.238743 1
4
 0.934355 0.240702 0.240702 1
4
 0.928183 0.240741 0.240741 1
4
 0.930217 0.245146 0.245146 1
4
 0.931994 0.249467 0.249467 1
4
 1 0.342441 0.342441 0.975071
4
 1 0.342629 0.342629 0.978801
4
 1 0.332209 0.332209 0.981386
4
 1 0.335369 0.335369 0.98056
4
 1 0.333387 0.333387 0.985639
4
 1 0.330986 0.330986 0.987522
4
 1 0.335925 0.335925 0.977646
4
 1 0.334605 0.334605 0.976384
4
 1 0.337116 0.337116 0.981883
4
 1 0.339306 0.339306 0.980561
4
 1 0.337787 0.337787 0.975563
4
 1 0.334099 0.334099 0.991691
4
 1 0.337301 0.337301 0.98564
4
 1 0.332711 0.332711 0.988854
4
 1 0.331535 0.331535 0.993195
4
 1 0.336269 0.336269 0.990356
4
 1 0.330521 0.330521 0.997947
4
 1 0.329147 0.329147 0.995093
4
 0.96865 0.270505 0.270505 1
4
 0.971045 0.275636 0.275636 1
4
 0.970493 0.304234 0.304234 1
4
 0.966741 0.299584 0.299584 1
4
 0.943892 0.276181 0.276181 1
4
 0.95118 0.284216 0.284216 1
4
 0.949953 0.281663 0.281663 1
4
 0.941352 0.270989 0.270989 1
4
 0.94453 0.270416 0.270416 1
4
 0.94506 0.272129 0.272129 1
4
 0.946121 0.274671 0.274671 1
4
 0.948461 0.278949 0.278949 1
4
 0.94761 0.276881 0.276881 1
4
 1 0.319359 0.319359 0.957109
4
 1 0.31509 0.31509 0.959098
4
 0.949315 0.27409 0.27409 1
4
 0.947718 0.270294 0.270294 1
4
 0.950808 0.276296 0.276296 1
4
 0.945964 0.266623 0.266623 1
4
 0.951342 0.278047 0.278047 1
4
 0.988655 0.272541 0.272541 1
4
 0.999147 0.280106 0.280106 1
4
 0.979197 0.311593 0.311593 1
4
 0.981453 0.314953 0.314953 1
4
 0.975958 0.31084 0.31084 1
4
 0.969949 0.302823 0.302823 1
4
 0.947619 0.242713 0.242713 1
4
 0.949004 0.242006 0.242006 1
4
 0.951137 0.244501 0.244501 1
4
 0.94847 0.245751 0.245751 1
4
 1 0.314631 0.314631 0.988739
4
 1 0.315804 0.315804 0.991408
4
 1 0.307319 0.307319 0.993301
4
 1 0.309745 0.309745 0.992911
4
 1 0.31168 0.31168 0.992745
4
 0.961598 0.293899 0.293899 1
4
 0.955785 0.287064 0.287064 1
4
 0.960789 0.291371 0.291371 1
4
 0.965385 0.295629 0.295629 1
4
 0.959549 0.288753 0.288753 1
4
 0.953695 0.282377 0.282377 1
4
 0.942259 0.243457 0.243457 1
4
 0.947032 0.24759 0.24759 1
4
 0.9421 0.244745 0.244745 1
4
 0.938088 0.242635 0.242635 1
4
 0.947297 0.250661 0.250661 1
4
 0.943263 0.248501 0.248501 1
4
 0.94284 0.246754 0.246754 1
4
 1 0.282233 0.282233 0.986735
4
 1 0.27906 0.27906 0.992124
4
 1 0.278994 0.278994 0.987621
4
 1 0.277119 0.277119 0.992848
4
 1 0.280891 0.280891 0.991233
4
 1 0.28285 0.28285 0.990288
4
 1 0.275802 0.275802 0.997374
4
 1 0.27967 0.27967 0.995696
4
 1 0.275736 0.275736 0.992847
4
 1 0.30655 0.30655 0.99615
4
 1 0.304028 0.304028 0.999568
4
 1 0.3109 0.3109 0.995592
4
 1 0.306428 0.306428 0.999175
1
 1

